\* Equipment *\
Maximize
OBJ: 1000 x_(0,_0) + 480 x_(0,_1) + 400 x_(0,_2) + 880 x_(1,_0) + 300 x_(1,_1)
 + 500 x_(1,_2) + 570 x_(2,_1) + 300 x_(2,_2) + 1120 x_(3,_0) + 360 x_(3,_1)
 + 450 x_(3,_2)
Subject To
_C1: x_(0,_0) + x_(0,_1) + x_(0,_2) <= 12
_C2: x_(1,_0) + x_(1,_1) + x_(1,_2) <= 8
_C3: x_(2,_0) + x_(2,_1) + x_(2,_2) <= 5
_C4: x_(3,_0) + x_(3,_1) + x_(3,_2) <= 6
_C5: 25 x_(0,_0) + 22 x_(1,_0) + 28 x_(3,_0) >= 200
_C6: 16 x_(0,_1) + 10 x_(1,_1) + 19 x_(2,_1) + 12 x_(3,_1) >= 100
_C7: 8 x_(0,_2) + 10 x_(1,_2) + 6 x_(2,_2) + 9 x_(3,_2) >= 150
Bounds
 0 <= x_(0,_0)
 0 <= x_(0,_1)
 0 <= x_(0,_2)
 0 <= x_(1,_0)
 0 <= x_(1,_1)
 0 <= x_(1,_2)
 0 <= x_(2,_0)
 0 <= x_(2,_1)
 0 <= x_(2,_2)
 0 <= x_(3,_0)
 0 <= x_(3,_1)
 0 <= x_(3,_2)
Generals
x_(0,_0)
x_(0,_1)
x_(0,_2)
x_(1,_0)
x_(1,_1)
x_(1,_2)
x_(2,_0)
x_(2,_1)
x_(2,_2)
x_(3,_0)
x_(3,_1)
x_(3,_2)
End
